numOfMachines = 4;
numOfRobots = 2;
numOfJobs = 5;
maxOperations = 3;
operationsCount = [3,3,3,2,2];
operation = [
[<0,0,0>,<1,8,0>,<2,16,1>,<4,12,0>],
[<0,0,0>,<1,20,0>,<3,10,0>,<2,18,0>],
[<0,0,0>,<3,12,0>,<4,8,1>,<1,15,0>],
[<0,0,0>,<4,14,0>,<2,18,0>],
[<0,0,0>,<3,10,0>,<1,15,0>]
];